(set-info :status unknown)
(declare-const symbol_216 (_ BitVec 32))
(declare-const symbol_393 (_ BitVec 32))
(declare-const symbol_438 (_ BitVec 32))
(declare-const symbol_240 (_ BitVec 32))
(declare-const symbol_472 (_ BitVec 32))
(declare-const symbol_222 (_ BitVec 32))
(declare-const symbol_197 (_ BitVec 32))
(declare-const symbol_125 (_ BitVec 32))
(declare-const symbol_513 (_ BitVec 32))
(declare-const symbol_293 (_ BitVec 32))
(declare-const symbol_458 (_ BitVec 32))
(declare-const symbol_454 (_ BitVec 32))
(declare-const symbol_156 (_ BitVec 32))
(declare-const symbol_193 (_ BitVec 32))
(declare-const symbol_152 (_ BitVec 32))
(declare-const symbol_115 (_ BitVec 32))
(declare-const symbol_257 (_ BitVec 32))
(declare-const symbol_224 (_ BitVec 32))
(declare-const symbol_54 (_ BitVec 32))
(declare-const symbol_250 (_ BitVec 32))
(declare-const symbol_413 (_ BitVec 32))
(declare-const symbol_131 (_ BitVec 32))
(declare-const symbol_446 (_ BitVec 32))
(declare-const symbol_289 (_ BitVec 32))
(declare-const symbol_254 (_ BitVec 32))
(declare-const symbol_478 (_ BitVec 32))
(declare-const symbol_84 (_ BitVec 32))
(declare-const symbol_26 (_ BitVec 32))
(declare-const symbol_15 (_ BitVec 32))
(declare-const symbol_104 (_ BitVec 32))
(declare-const symbol_44 (_ BitVec 32))
(declare-const symbol_485 (_ BitVec 32))
(declare-const symbol_96 (_ BitVec 32))
(declare-const symbol_231 (_ BitVec 32))
(declare-const symbol_407 (_ BitVec 32))
(declare-const symbol_11 (_ BitVec 32))
(declare-const symbol_267 (_ BitVec 32))
(declare-const symbol_265 (_ BitVec 32))
(declare-const symbol_448 (_ BitVec 32))
(declare-const symbol_311 (_ BitVec 32))
(declare-const symbol_24 (_ BitVec 32))
(declare-const symbol_373 (_ BitVec 32))
(declare-const symbol_67 (_ BitVec 32))
(declare-const symbol_176 (_ BitVec 32))
(declare-const symbol_399 (_ BitVec 32))
(declare-const symbol_380 (_ BitVec 32))
(declare-const symbol_470 (_ BitVec 32))
(declare-const symbol_493 (_ BitVec 32))
(declare-const symbol_507 (_ BitVec 32))
(declare-const symbol_274 (_ BitVec 32))
(declare-const symbol_474 (_ BitVec 32))
(declare-const symbol_269 (_ BitVec 32))
(declare-const symbol_278 (_ BitVec 32))
(declare-const symbol_235 (_ BitVec 32))
(declare-const symbol_299 (_ BitVec 32))
(declare-const symbol_2 (_ BitVec 32))
(declare-const symbol_326 (_ BitVec 32))
(declare-const symbol_350 (_ BitVec 32))
(declare-const symbol_154 (_ BitVec 32))
(declare-const symbol_86 (_ BitVec 32))
(declare-const symbol_199 (_ BitVec 32))
(declare-const symbol_415 (_ BitVec 32))
(declare-const symbol_444 (_ BitVec 32))
(declare-const symbol_210 (_ BitVec 32))
(declare-const symbol_369 (_ BitVec 32))
(declare-const symbol_238 (_ BitVec 32))
(declare-const symbol_395 (_ BitVec 32))
(declare-const symbol_273 (_ BitVec 32))
(declare-const symbol_76 (_ BitVec 32))
(declare-const symbol_5 (_ BitVec 32))
(declare-const symbol_203 (_ BitVec 32))
(declare-const symbol_90 (_ BitVec 32))
(declare-const symbol_462 (_ BitVec 32))
(declare-const symbol_321 (_ BitVec 32))
(declare-const symbol_162 (_ BitVec 32))
(declare-const symbol_304 (_ BitVec 32))
(declare-const symbol_160 (_ BitVec 32))
(declare-const symbol_175 (_ BitVec 32))
(declare-const symbol_109 (_ BitVec 32))
(declare-const symbol_356 (_ BitVec 32))
(declare-const symbol_295 (_ BitVec 32))
(declare-const symbol_319 (_ BitVec 32))
(declare-const symbol_49 (_ BitVec 32))
(declare-const symbol_302 (_ BitVec 32))
(declare-const symbol_378 (_ BitVec 32))
(declare-const symbol_480 (_ BitVec 32))
(declare-const symbol_468 (_ BitVec 32))
(declare-const symbol_141 (_ BitVec 32))
(declare-const symbol_499 (_ BitVec 32))
(declare-const symbol_436 (_ BitVec 32))
(declare-const symbol_220 (_ BitVec 32))
(declare-const symbol_524 (_ BitVec 32))
(declare-const symbol_310 (_ BitVec 32))
(declare-const symbol_237 (_ BitVec 32))
(declare-const symbol_135 (_ BitVec 32))
(declare-const symbol_505 (_ BitVec 32))
(declare-const symbol_387 (_ BitVec 32))
(declare-const symbol_291 (_ BitVec 32))
(declare-const symbol_139 (_ BitVec 32))
(declare-const symbol_9 (_ BitVec 32))
(declare-const symbol_315 (_ BitVec 32))
(declare-const symbol_306 (_ BitVec 32))
(declare-const symbol_259 (_ BitVec 32))
(declare-const symbol_371 (_ BitVec 32))
(declare-const symbol_183 (_ BitVec 32))
(declare-const symbol_285 (_ BitVec 32))
(declare-const symbol_427 (_ BitVec 32))
(declare-const symbol_61 (_ BitVec 32))
(declare-const symbol_123 (_ BitVec 32))
(declare-const symbol_145 (_ BitVec 32))
(declare-const symbol_423 (_ BitVec 32))
(declare-const symbol_280 (_ BitVec 32))
(declare-const symbol_100 (_ BitVec 32))
(declare-const symbol_57 (_ BitVec 32))
(declare-const symbol_263 (_ BitVec 32))
(declare-const symbol_127 (_ BitVec 32))
(declare-const symbol_94 (_ BitVec 32))
(declare-const symbol_72 (_ BitVec 32))
(declare-const symbol_191 (_ BitVec 32))
(declare-const symbol_341 (_ BitVec 32))
(declare-const symbol_450 (_ BitVec 32))
(declare-const symbol_333 (_ BitVec 32))
(declare-const symbol_147 (_ BitVec 32))
(declare-const symbol_170 (_ BitVec 32))
(declare-const symbol_111 (_ BitVec 32))
(declare-const symbol_88 (_ BitVec 32))
(declare-const symbol_324 (_ BitVec 32))
(declare-const symbol_13 (_ BitVec 32))
(declare-const symbol_53 (_ BitVec 32))
(declare-const symbol_276 (_ BitVec 32))
(declare-const symbol_391 (_ BitVec 32))
(declare-const symbol_442 (_ BitVec 32))
(declare-const symbol_148 (_ BitVec 32))
(declare-const symbol_69 (_ BitVec 32))
(declare-const symbol_195 (_ BitVec 32))
(declare-const symbol_129 (_ BitVec 32))
(declare-const symbol_81 (_ BitVec 32))
(declare-const symbol_201 (_ BitVec 32))
(declare-const symbol_48 (_ BitVec 32))
(declare-const symbol_406 (_ BitVec 32))
(declare-const symbol_71 (_ BitVec 32))
(declare-const symbol_317 (_ BitVec 32))
(declare-const symbol_483 (_ BitVec 32))
(declare-const symbol_476 (_ BitVec 32))
(declare-const symbol_466 (_ BitVec 32))
(declare-const symbol_419 (_ BitVec 32))
(declare-const symbol_460 (_ BitVec 32))
(declare-const symbol_226 (_ BitVec 32))
(declare-const symbol_456 (_ BitVec 32))
(declare-const symbol_271 (_ BitVec 32))
(declare-const symbol_401 (_ BitVec 32))
(declare-const symbol_17 (_ BitVec 32))
(declare-const symbol_432 (_ BitVec 32))
(declare-const symbol_503 (_ BitVec 32))
(declare-const symbol_425 (_ BitVec 32))
(declare-const symbol_137 (_ BitVec 32))
(declare-const symbol_491 (_ BitVec 32))
(declare-const symbol_382 (_ BitVec 32))
(declare-const symbol_102 (_ BitVec 32))
(declare-const symbol_421 (_ BitVec 32))
(declare-const symbol_205 (_ BitVec 32))
(declare-const symbol_28 (_ BitVec 32))
(declare-const symbol_352 (_ BitVec 32))
(declare-const symbol_158 (_ BitVec 32))
(declare-const symbol_335 (_ BitVec 32))
(declare-const symbol_184 (_ BitVec 32))
(declare-const symbol_489 (_ BitVec 32))
(declare-const symbol_348 (_ BitVec 32))
(declare-const symbol_166 (_ BitVec 32))
(declare-const symbol_229 (_ BitVec 32))
(declare-const symbol_329 (_ BitVec 32))
(declare-const symbol_181 (_ BitVec 32))
(declare-const symbol_375 (_ BitVec 32))
(declare-const symbol_365 (_ BitVec 32))
(declare-const symbol_117 (_ BitVec 32))
(declare-const symbol_46 (_ BitVec 32))
(declare-const symbol_440 (_ BitVec 32))
(declare-const symbol_385 (_ BitVec 32))
(declare-const symbol_74 (_ BitVec 32))
(declare-const symbol_517 (_ BitVec 32))
(declare-const symbol_79 (_ BitVec 32))
(declare-const symbol_403 (_ BitVec 32))
(declare-const symbol_322 (_ BitVec 32))
(declare-const symbol_233 (_ BitVec 32))
(declare-const symbol_328 (_ BitVec 32))
(declare-const symbol_297 (_ BitVec 32))
(declare-const symbol_358 (_ BitVec 32))
(declare-const symbol_287 (_ BitVec 32))
(declare-const symbol_244 (_ BitVec 32))
(declare-const symbol_344 (_ BitVec 32))
(declare-const symbol_30 (_ BitVec 32))
(declare-const symbol_367 (_ BitVec 32))
(declare-const symbol_300 (_ BitVec 32))
(declare-const symbol_21 (_ BitVec 32))
(declare-const symbol_19 (_ BitVec 32))
(declare-const symbol_43 (_ BitVec 32))
(declare-const symbol_218 (_ BitVec 32))
(declare-const symbol_342 (_ BitVec 32))
(declare-const symbol_98 (_ BitVec 32))
(declare-const symbol_7 (_ BitVec 32))
(declare-const symbol_212 (_ BitVec 32))
(declare-const symbol_242 (_ BitVec 32))
(declare-const symbol_119 (_ BitVec 32))
(declare-const symbol_360 (_ BitVec 32))
(declare-const symbol_337 (_ BitVec 32))
(declare-const symbol_515 (_ BitVec 32))
(declare-const symbol_331 (_ BitVec 32))
(declare-const symbol_261 (_ BitVec 32))
(declare-const symbol_434 (_ BitVec 32))
(declare-const symbol_32 (_ BitVec 32))
(declare-const symbol_150 (_ BitVec 32))
(declare-const symbol_346 (_ BitVec 32))
(declare-const symbol_144 (_ BitVec 32))
(declare-const symbol_522 (_ BitVec 32))
(declare-const symbol_252 (_ BitVec 32))
(declare-const symbol_354 (_ BitVec 32))
(declare-const symbol_164 (_ BitVec 32))
(declare-const symbol_113 (_ BitVec 32))
(declare-const symbol_63 (_ BitVec 32))
(declare-const symbol_409 (_ BitVec 32))
(declare-const symbol_172 (_ BitVec 32))
(declare-const symbol_511 (_ BitVec 32))
(declare-const symbol_411 (_ BitVec 32))
(declare-const symbol_0 (_ BitVec 32))
(declare-const symbol_487 (_ BitVec 32))
(declare-const symbol_452 (_ BitVec 32))
(declare-const symbol_92 (_ BitVec 32))
(declare-const symbol_188 (_ BitVec 32))
(declare-const symbol_179 (_ BitVec 32))
(declare-const symbol_36 (_ BitVec 32))
(declare-const symbol_64 (_ BitVec 32))
(declare-const symbol_501 (_ BitVec 32))
(declare-const symbol_509 (_ BitVec 32))
(declare-const symbol_248 (_ BitVec 32))
(declare-const symbol_133 (_ BitVec 32))
(declare-const symbol_34 (_ BitVec 32))
(declare-const symbol_38 (_ BitVec 32))
(declare-const symbol_464 (_ BitVec 32))
(declare-const symbol_282 (_ BitVec 32))
(declare-const symbol_207 (_ BitVec 32))
(declare-const symbol_41 (_ BitVec 32))
(declare-const symbol_497 (_ BitVec 32))
(declare-const symbol_308 (_ BitVec 32))
(declare-const symbol_430 (_ BitVec 32))
(declare-const symbol_363 (_ BitVec 32))
(declare-const symbol_313 (_ BitVec 32))
(declare-const symbol_246 (_ BitVec 32))
(declare-const symbol_169 (_ BitVec 32))
(declare-const symbol_339 (_ BitVec 32))
(declare-const symbol_397 (_ BitVec 32))
(declare-const symbol_495 (_ BitVec 32))
(declare-const symbol_107 (_ BitVec 32))
(declare-const symbol_51 (_ BitVec 32))
(declare-const symbol_256 (_ BitVec 32))
(declare-const symbol_389 (_ BitVec 32))
(declare-const symbol_186 (_ BitVec 32))
(declare-const symbol_121 (_ BitVec 32))
(declare-const symbol_59 (_ BitVec 32))
(declare-const symbol_56 (_ BitVec 32))
(declare-const symbol_417 (_ BitVec 32))
(declare-const symbol_214 (_ BitVec 32))
(declare-const symbol_519 (_ BitVec 32))
(assert (bvsge symbol_524 (_ bv0 32)))
(assert (not (bvsge symbol_522 (_ bv0 32))))
(assert (not (bvsge symbol_519 (_ bv0 32))))
(assert (not (bvsge symbol_517 (_ bv0 32))))
(assert (not (bvsge symbol_515 (_ bv0 32))))
(assert (not (bvsge symbol_513 (_ bv0 32))))
(assert (not (bvsge symbol_511 (_ bv0 32))))
(assert (not (bvsge symbol_509 (_ bv0 32))))
(assert (not (bvsge symbol_507 (_ bv0 32))))
(assert (not (bvsge symbol_505 (_ bv0 32))))
(assert (not (bvsge symbol_503 (_ bv0 32))))
(assert (not (bvsge symbol_501 (_ bv0 32))))
(assert (not (bvsge symbol_499 (_ bv0 32))))
(assert (not (bvsge symbol_497 (_ bv0 32))))
(assert (not (bvsge symbol_495 (_ bv0 32))))
(assert (not (bvsge symbol_493 (_ bv0 32))))
(assert (not (bvsge symbol_491 (_ bv0 32))))
(assert (not (bvsge symbol_489 (_ bv0 32))))
(assert (not (bvsge symbol_487 (_ bv0 32))))
(assert (not (bvsge symbol_485 (_ bv0 32))))
(assert (not (bvsge symbol_483 (_ bv0 32))))
(assert (not (bvsge symbol_480 (_ bv0 32))))
(assert (not (bvsge symbol_478 (_ bv0 32))))
(assert (not (bvsge symbol_476 (_ bv0 32))))
(assert (not (bvsge symbol_474 (_ bv0 32))))
(assert (not (bvsge symbol_472 (_ bv0 32))))
(assert (not (bvsge symbol_470 (_ bv0 32))))
(assert (not (bvsge symbol_468 (_ bv0 32))))
(assert (not (bvsge symbol_466 (_ bv0 32))))
(assert (not (bvsge symbol_464 (_ bv0 32))))
(assert (not (bvsge symbol_462 (_ bv0 32))))
(assert (not (bvsge symbol_460 (_ bv0 32))))
(assert (not (bvsge symbol_458 (_ bv0 32))))
(assert (not (bvsge symbol_456 (_ bv0 32))))
(assert (not (bvsge symbol_454 (_ bv0 32))))
(assert (not (bvsge symbol_452 (_ bv0 32))))
(assert (not (bvsge symbol_450 (_ bv0 32))))
(assert (not (bvsge symbol_448 (_ bv0 32))))
(assert (not (bvsge symbol_446 (_ bv0 32))))
(assert (not (bvsge symbol_444 (_ bv0 32))))
(assert (not (bvsge symbol_442 (_ bv0 32))))
(assert (not (bvsge symbol_440 (_ bv0 32))))
(assert (not (bvsge symbol_438 (_ bv0 32))))
(assert (not (bvsge symbol_436 (_ bv0 32))))
(assert (not (bvsge symbol_434 (_ bv0 32))))
(assert (not (bvsge symbol_432 (_ bv0 32))))
(assert (not (bvsge symbol_430 (_ bv0 32))))
(assert (not (bvsge symbol_427 (_ bv0 32))))
(assert (not (bvsge symbol_425 (_ bv0 32))))
(assert (not (bvsge symbol_423 (_ bv0 32))))
(assert (not (bvsge symbol_421 (_ bv0 32))))
(assert (not (bvsge symbol_419 (_ bv0 32))))
(assert (not (bvsge symbol_417 (_ bv0 32))))
(assert (not (bvsge symbol_415 (_ bv0 32))))
(assert (not (bvsge symbol_413 (_ bv0 32))))
(assert (not (bvsge symbol_411 (_ bv0 32))))
(assert (not (bvsge symbol_409 (_ bv0 32))))
(assert (not (bvsge symbol_407 (_ bv0 32))))
(assert (not (bvsge symbol_406 (_ bv0 32))))
(assert (not (bvsge symbol_403 (_ bv0 32))))
(assert (not (bvsge symbol_401 (_ bv0 32))))
(assert (not (bvsge symbol_399 (_ bv0 32))))
(assert (not (bvsge symbol_397 (_ bv0 32))))
(assert (not (bvsge symbol_395 (_ bv0 32))))
(assert (not (bvsge symbol_393 (_ bv0 32))))
(assert (not (bvsge symbol_391 (_ bv0 32))))
(assert (not (bvsge symbol_389 (_ bv0 32))))
(assert (not (bvsge symbol_387 (_ bv0 32))))
(assert (not (bvsge symbol_385 (_ bv0 32))))
(assert (not (bvsge symbol_382 (_ bv0 32))))
(assert (not (bvsge symbol_380 (_ bv0 32))))
(assert (not (bvsge symbol_378 (_ bv0 32))))
(assert (not (bvsge symbol_375 (_ bv0 32))))
(assert (not (bvsge symbol_373 (_ bv0 32))))
(assert (not (bvsge symbol_371 (_ bv0 32))))
(assert (not (bvsge symbol_369 (_ bv0 32))))
(assert (not (bvsge symbol_367 (_ bv0 32))))
(assert (not (bvsge symbol_365 (_ bv0 32))))
(assert (not (bvsge symbol_363 (_ bv0 32))))
(assert (not (bvsge symbol_360 (_ bv0 32))))
(assert (not (bvsge symbol_358 (_ bv0 32))))
(assert (not (bvsge symbol_356 (_ bv0 32))))
(assert (not (bvsge symbol_354 (_ bv0 32))))
(assert (not (bvsge symbol_352 (_ bv0 32))))
(assert (not (bvsge symbol_350 (_ bv0 32))))
(assert (not (bvsge symbol_348 (_ bv0 32))))
(assert (not (bvsge symbol_346 (_ bv0 32))))
(assert (not (bvsge symbol_344 (_ bv0 32))))
(assert (not (bvsge symbol_342 (_ bv0 32))))
(assert (not (bvsge symbol_341 (_ bv0 32))))
(assert (not (bvsge symbol_339 (_ bv0 32))))
(assert (not (bvsge symbol_337 (_ bv0 32))))
(assert (not (bvsge symbol_335 (_ bv0 32))))
(assert (not (bvsge symbol_333 (_ bv0 32))))
(assert (not (bvsge symbol_331 (_ bv0 32))))
(assert (not (bvsge symbol_329 (_ bv0 32))))
(assert (not (bvsge symbol_328 (_ bv0 32))))
(assert (not (bvsge symbol_326 (_ bv0 32))))
(assert (not (bvsge symbol_324 (_ bv0 32))))
(assert (not (bvsge symbol_322 (_ bv0 32))))
(assert (not (bvsge symbol_321 (_ bv0 32))))
(assert (not (bvsge symbol_319 (_ bv0 32))))
(assert (not (bvsge symbol_317 (_ bv0 32))))
(assert (not (bvsge symbol_315 (_ bv0 32))))
(assert (not (bvsge symbol_313 (_ bv0 32))))
(assert (not (bvsge symbol_311 (_ bv0 32))))
(assert (not (bvsge symbol_310 (_ bv0 32))))
(assert (not (bvsge symbol_308 (_ bv0 32))))
(assert (not (bvsge symbol_306 (_ bv0 32))))
(assert (not (bvsge symbol_304 (_ bv0 32))))
(assert (not (bvsge symbol_302 (_ bv0 32))))
(assert (not (bvsge symbol_300 (_ bv0 32))))
(assert (not (bvsge symbol_299 (_ bv0 32))))
(assert (not (bvsge symbol_297 (_ bv0 32))))
(assert (not (bvsge symbol_295 (_ bv0 32))))
(assert (not (bvsge symbol_293 (_ bv0 32))))
(assert (not (bvsge symbol_291 (_ bv0 32))))
(assert (not (bvsge symbol_289 (_ bv0 32))))
(assert (not (bvsge symbol_287 (_ bv0 32))))
(assert (not (bvsge symbol_285 (_ bv0 32))))
(assert (not (bvsge symbol_282 (_ bv0 32))))
(assert (not (bvsge symbol_280 (_ bv0 32))))
(assert (not (bvsge symbol_278 (_ bv0 32))))
(assert (not (bvsge symbol_276 (_ bv0 32))))
(assert (not (bvsge symbol_274 (_ bv0 32))))
(assert (not (bvsge symbol_273 (_ bv0 32))))
(assert (not (bvsge symbol_271 (_ bv0 32))))
(assert (not (bvsge symbol_269 (_ bv0 32))))
(assert (not (bvsge symbol_267 (_ bv0 32))))
(assert (not (bvsge symbol_265 (_ bv0 32))))
(assert (not (bvsge symbol_263 (_ bv0 32))))
(assert (not (bvsge symbol_261 (_ bv0 32))))
(assert (not (bvsge symbol_259 (_ bv0 32))))
(assert (not (bvsge symbol_257 (_ bv0 32))))
(assert (not (bvsge symbol_256 (_ bv0 32))))
(assert (not (bvsge symbol_254 (_ bv0 32))))
(assert (not (bvsge symbol_252 (_ bv0 32))))
(assert (not (bvsge symbol_250 (_ bv0 32))))
(assert (not (bvsge symbol_248 (_ bv0 32))))
(assert (not (bvsge symbol_246 (_ bv0 32))))
(assert (not (bvsge symbol_244 (_ bv0 32))))
(assert (not (bvsge symbol_242 (_ bv0 32))))
(assert (not (bvsge symbol_240 (_ bv0 32))))
(assert (not (bvsge symbol_238 (_ bv0 32))))
(assert (not (bvsge symbol_237 (_ bv0 32))))
(assert (not (bvsge symbol_235 (_ bv0 32))))
(assert (not (bvsge symbol_233 (_ bv0 32))))
(assert (not (bvsge symbol_231 (_ bv0 32))))
(assert (not (bvsge symbol_229 (_ bv0 32))))
(assert (not (bvsge symbol_226 (_ bv0 32))))
(assert (not (bvsge symbol_224 (_ bv0 32))))
(assert (not (bvsge symbol_222 (_ bv0 32))))
(assert (not (bvsge symbol_220 (_ bv0 32))))
(assert (not (bvsge symbol_218 (_ bv0 32))))
(assert (not (bvsge symbol_216 (_ bv0 32))))
(assert (not (bvsge symbol_214 (_ bv0 32))))
(assert (not (bvsge symbol_212 (_ bv0 32))))
(assert (not (bvsge symbol_210 (_ bv0 32))))
(assert (not (bvsge symbol_207 (_ bv0 32))))
(assert (not (bvsge symbol_205 (_ bv0 32))))
(assert (not (bvsge symbol_203 (_ bv0 32))))
(assert (not (bvsge symbol_201 (_ bv0 32))))
(assert (not (bvsge symbol_199 (_ bv0 32))))
(assert (not (bvsge symbol_197 (_ bv0 32))))
(assert (not (bvsge symbol_195 (_ bv0 32))))
(assert (not (bvsge symbol_193 (_ bv0 32))))
(assert (not (bvsge symbol_191 (_ bv0 32))))
(assert (not (bvsge symbol_188 (_ bv0 32))))
(assert (not (bvsge symbol_186 (_ bv0 32))))
(assert (not (bvsge symbol_184 (_ bv0 32))))
(assert (not (bvsge symbol_183 (_ bv0 32))))
(assert (not (bvsge symbol_181 (_ bv0 32))))
(assert (not (bvsge symbol_179 (_ bv0 32))))
(assert (not (bvsge symbol_176 (_ bv0 32))))
(assert (not (bvsge symbol_175 (_ bv0 32))))
(assert (not (bvsge symbol_172 (_ bv0 32))))
(assert (not (bvsge symbol_170 (_ bv0 32))))
(assert (not (bvsge symbol_169 (_ bv0 32))))
(assert (not (bvsge symbol_166 (_ bv0 32))))
(assert (not (bvsge symbol_164 (_ bv0 32))))
(assert (not (bvsge symbol_162 (_ bv0 32))))
(assert (not (bvsge symbol_160 (_ bv0 32))))
(assert (not (bvsge symbol_158 (_ bv0 32))))
(assert (not (bvsge symbol_156 (_ bv0 32))))
(assert (not (bvsge symbol_154 (_ bv0 32))))
(assert (not (bvsge symbol_152 (_ bv0 32))))
(assert (not (bvsge symbol_150 (_ bv0 32))))
(assert (not (bvsge symbol_148 (_ bv0 32))))
(assert (not (bvsge symbol_147 (_ bv0 32))))
(assert (not (bvsge symbol_145 (_ bv0 32))))
(assert (not (bvsge symbol_144 (_ bv0 32))))
(assert (not (bvsge symbol_141 (_ bv0 32))))
(assert (not (bvsge symbol_139 (_ bv0 32))))
(assert (not (bvsge symbol_137 (_ bv0 32))))
(assert (not (bvsge symbol_135 (_ bv0 32))))
(assert (not (bvsge symbol_133 (_ bv0 32))))
(assert (not (bvsge symbol_131 (_ bv0 32))))
(assert (not (bvsge symbol_129 (_ bv0 32))))
(assert (not (bvsge symbol_127 (_ bv0 32))))
(assert (not (bvsge symbol_125 (_ bv0 32))))
(assert (not (bvsge symbol_123 (_ bv0 32))))
(assert (not (bvsge symbol_121 (_ bv0 32))))
(assert (not (bvsge symbol_119 (_ bv0 32))))
(assert (not (bvsge symbol_117 (_ bv0 32))))
(assert (not (bvsge symbol_115 (_ bv0 32))))
(assert (not (bvsge symbol_113 (_ bv0 32))))
(assert (not (bvsge symbol_111 (_ bv0 32))))
(assert (not (bvsge symbol_109 (_ bv0 32))))
(assert (not (bvsge symbol_107 (_ bv0 32))))
(assert (not (bvsge symbol_104 (_ bv0 32))))
(assert (not (bvsge symbol_102 (_ bv0 32))))
(assert (not (bvsge symbol_100 (_ bv0 32))))
(assert (not (bvsge symbol_98 (_ bv0 32))))
(assert (not (bvsge symbol_96 (_ bv0 32))))
(assert (not (bvsge symbol_94 (_ bv0 32))))
(assert (not (bvsge symbol_92 (_ bv0 32))))
(assert (not (bvsge symbol_90 (_ bv0 32))))
(assert (not (bvsge symbol_88 (_ bv0 32))))
(assert (not (bvsge symbol_86 (_ bv0 32))))
(assert (not (bvsge symbol_84 (_ bv0 32))))
(assert (not (bvsge symbol_81 (_ bv0 32))))
(assert (not (bvsge symbol_79 (_ bv0 32))))
(assert (not (bvsge symbol_76 (_ bv0 32))))
(assert (not (bvsge symbol_74 (_ bv0 32))))
(assert (not (bvsge symbol_72 (_ bv0 32))))
(assert (not (bvsge symbol_71 (_ bv0 32))))
(assert (not (bvsge symbol_69 (_ bv0 32))))
(assert (not (bvsge symbol_67 (_ bv0 32))))
(assert (not (bvsge symbol_64 (_ bv0 32))))
(assert (not (bvsge symbol_63 (_ bv0 32))))
(assert (not (bvsge symbol_61 (_ bv0 32))))
(assert (not (bvsge symbol_59 (_ bv0 32))))
(assert (not (bvsge symbol_57 (_ bv0 32))))
(assert (not (bvsge symbol_56 (_ bv0 32))))
(assert (not (bvsge symbol_54 (_ bv0 32))))
(assert (not (bvsge symbol_53 (_ bv0 32))))
(assert (not (bvsge symbol_51 (_ bv0 32))))
(assert (not (bvsge symbol_49 (_ bv0 32))))
(assert (not (bvsge symbol_48 (_ bv0 32))))
(assert (not (bvsge symbol_46 (_ bv0 32))))
(assert (not (bvsge symbol_44 (_ bv0 32))))
(assert (not (bvsge symbol_43 (_ bv0 32))))
(assert (not (bvsge symbol_41 (_ bv0 32))))
(assert (not (bvsge symbol_38 (_ bv0 32))))
(assert (not (bvsge symbol_36 (_ bv0 32))))
(assert (not (bvsge symbol_34 (_ bv0 32))))
(assert (not (bvsge symbol_32 (_ bv0 32))))
(assert (not (bvsge symbol_30 (_ bv0 32))))
(assert (not (bvsge symbol_28 (_ bv0 32))))
(assert (not (bvsge symbol_26 (_ bv0 32))))
(assert (not (bvsge symbol_24 (_ bv0 32))))
(assert (not (bvsge symbol_21 (_ bv0 32))))
(assert (not (bvsge symbol_19 (_ bv0 32))))
(assert (not (bvsge symbol_17 (_ bv0 32))))
(assert (not (bvsge symbol_15 (_ bv0 32))))
(assert (not (bvsge symbol_13 (_ bv0 32))))
(assert (not (bvsge symbol_11 (_ bv0 32))))
(assert (not (bvsge symbol_9 (_ bv0 32))))
(assert (not (bvsge symbol_7 (_ bv0 32))))
(assert (not (bvsge symbol_5 (_ bv0 32))))
(assert (not (bvsge symbol_2 (_ bv0 32))))
(assert (bvsge symbol_0 (_ bv0 32)))
(check-sat)